(set-info :smt-lib-version 2.6)
(set-logic QF_LIA)
(set-info :source |
show equivalence of the following terms:
(4 * v2 + (1 * v0 + 2 * v1))

v0 + 2 * (v1 + 2 * (v2))

in arithmetic modulo 2exp10
STATUS: unsat

generated by: Alberto Griggio <alberto.griggio@disi.unitn.it>
|)
(set-info :category "crafted")
(set-info :status unsat)

(assert (let ((x (+ 3 4))) (> x  0)))

(check-sat)
(exit)
